1538.33
98 46 47 48 39 38 37 36 17 8 7 6 15 5 4 94 86 77 68 67 76 85 95 96 97 88 87 78 79 70 69 59 58 49 50 51 60 61 62 53 52 54 55 56 57 66 65 64 63 72 71 73 75 74 84 93 3 30 29 28 27 26 34 35 45 44 43 42 41 40 31 22 13 14 23 32 33 24 25 16 18 19 21 12 20 11 2 92 83 82 81 80 89 90 91 1 10 9 0 
